; benchmark generated from python API
(set-info :status unknown)
(declare-fun rdi () (_ BitVec 64))
(assert
 (let ((?x6 ((_ extract 31 0) rdi)))
 (let ((?x8 (bvadd (_ bv1 32) ?x6)))
 (let ((?x9 ((_ extract 31 31) ?x8)))
 (let ((?x458 (concat ?x9 ?x9 ?x9 ?x9 ?x9 ?x9 ?x9 ?x9 ?x9 ?x9 ?x9 ?x9 ?x9 ?x9 ?x9 ?x9 ?x9 ?x9 ?x9 ?x9 ?x9 ?x9 ?x9 ?x9 ?x9 ?x9 ?x9 ?x9 ?x9 ?x9 ?x9 ?x9 ?x8)))
 (let ((?x460 ((_ extract 31 31) (bvashr ?x458 (_ bv31 64)))))
 (let ((?x463 (concat (_ bv0 31) ?x460)))
 (let ((?x462 (concat (_ bv0 31) (bvadd (_ bv1 1) ((_ extract 0 0) rdi) ?x460))))
 (let ((?x50 ((_ extract 0 0) rdi)))
 (let (($x409 (= ?x50 (_ bv0 1))))
 (let ((?x70 (bvadd ?x6 (concat (_ bv0 31) ((_ extract 31 31) rdi)))))
 (let ((?x71 ((_ extract 31 31) ?x70)))
 (let ((?x252 (concat ?x71 ?x71 ?x71 ?x71 ?x71 ?x71 ?x71 ?x71 ?x71 ?x71 ?x71 ?x71 ?x71 ?x71 ?x71 ?x71 ?x71 ?x71 ?x71 ?x71 ?x71 ?x71 ?x71 ?x71 ?x71 ?x71 ?x71 ?x71 ?x71 ?x71 ?x71 ?x71 ?x70)))
 (let ((?x253 (bvashr ?x252 (_ bv1 64))))
 (let ((?x384 ((_ extract 0 0) ?x253)))
 (let (($x393 (= ?x384 (_ bv0 1))))
 (let (($x419 (not $x393)))
 (let ((?x257 (bvadd ((_ extract 31 0) ?x253) (concat (_ bv0 31) ((_ extract 31 31) ?x253)))))
 (let ((?x258 ((_ extract 31 31) ?x257)))
 (let ((?x289 (concat ?x258 ?x258 ?x258 ?x258 ?x258 ?x258 ?x258 ?x258 ?x258 ?x258 ?x258 ?x258 ?x258 ?x258 ?x258 ?x258 ?x258 ?x258 ?x258 ?x258 ?x258 ?x258 ?x258 ?x258 ?x258 ?x258 ?x258 ?x258 ?x258 ?x258 ?x258 ?x258 ?x257)))
 (let ((?x290 (bvashr ?x289 (_ bv1 64))))
 (let ((?x366 ((_ extract 0 0) ?x290)))
 (let (($x375 (= ?x366 (_ bv0 1))))
 (let ((?x294 (bvadd ((_ extract 31 0) ?x290) (concat (_ bv0 31) ((_ extract 31 31) ?x290)))))
 (let ((?x295 ((_ extract 31 31) ?x294)))
 (let ((?x326 (concat ?x295 ?x295 ?x295 ?x295 ?x295 ?x295 ?x295 ?x295 ?x295 ?x295 ?x295 ?x295 ?x295 ?x295 ?x295 ?x295 ?x295 ?x295 ?x295 ?x295 ?x295 ?x295 ?x295 ?x295 ?x295 ?x295 ?x295 ?x295 ?x295 ?x295 ?x295 ?x295 ?x294)))
 (let ((?x327 (bvashr ?x326 (_ bv1 64))))
 (let ((?x338 ((_ extract 0 0) ?x327)))
 (let (($x355 (= ?x338 (_ bv0 1))))
 (let (($x356 (not $x355)))
 (let (($x997 (or (and $x356 $x375 $x393 $x409 (= ?x462 (bvadd (_ bv3 32) ?x463))) (and $x419 $x409 (= ?x462 (bvadd (_ bv1 32) ?x463))) (and (not $x409) (= ?x50 (_ bv1 1))))))
 (and $x997))))))))))))))))))))))))))))))))
(check-sat)
